SiC Unit Cell                           
   1.00000000000000     
    13.0800000000000001    0.5    0.7
     0.9800   13.0800000000000001    1.0300000000000000
     0.800000000000000    -0.2000000000000000   13.0800000000000001
   C    Si   H 
    99    99    28
Direct
 -0.0000594855638473  0.0000594855638473  0.0001422215048226
  0.1646978285098412  0.1649319712006643  0.0004056527863200
  0.1652193133823135  0.0000713257115607  0.1665280441448409
 -0.0021215804561800  0.1666828060110860  0.1668843892353934
  0.3327802988755200  0.0002604053401895  0.0012193582802760
  0.6670318268695180  0.0023297842857024 -0.0006467710700175
  0.4984098531287534  0.1661923112280560 -0.0003529201440634
  0.8317605292998222  0.1682394707001781 -0.0009387710707455
  0.4989520476667330  0.0000786137048929  0.1660447213283232
  0.8333171939889139  0.0021215804561800  0.1668843892353934
  0.3299348250101297  0.1651827757066724  0.1652257971844634
  0.6590120515966510  0.1624783833794197  0.1624234390305371
 -0.0023297842857024  0.3329681731304819 -0.0006467710700175
 -0.0002604053401895  0.6672197011244803  0.0012193582802760
  0.1653279993345063  0.4989220631962777  0.0012414239770101
  0.1667279804131101  0.8332720195868902 -0.0000495530309435
  0.1628067430507396  0.3309483225806022  0.1661827119278333
  0.1645057316454226  0.6676077969819117  0.1639794782488102
 -0.0000786137048929  0.5010479523332669  0.1660447213283232
 -0.0000713257115607  0.8347806866176867  0.1665280441448409
  0.3300232794736114  0.3305716754893914  0.0008832365476096
  0.3339393725853754  0.6660606274146251  0.0004968232536399
  0.6656044117960882  0.3343955882039121  0.0004681475674501
  0.6694283245106085  0.6699767205263880  0.0008832365476096
  0.4993438941572018  0.5006561058427983  0.0007939429893166
  0.5010779368037215  0.8346720006654939  0.0012414239770101
  0.8338076887719441  0.5015901468712467 -0.0003529201440634
  0.8350680287993357  0.8353021714901590  0.0004056527863200
  0.4933278948775922  0.3285130027139767  0.1637081520444760
  0.5075998032918881  0.6732386550834790  0.1619383799349495
  0.8375216166205800  0.3409879484033490  0.1624234390305371
  0.8348172242933281  0.6700651749898709  0.1652257971844634
  0.3267613449165207  0.4924001967081116  0.1619383799349495
  0.3323922030180879  0.8354942683545782  0.1639794782488102
  0.6714869972860233  0.5066721051224076  0.1637081520444760
  0.6690516774193981  0.8371932569492599  0.1661827119278333
 -0.0004684393351004  0.0004684393351004  0.3337706962182527
  0.0061337154969950 -0.0061337154969950  0.6672915401737695
  0.1655408125875851  0.1660256631826077  0.3335392204767853
  0.1644971156288282  0.1625968842626978  0.6682497110304093
  0.1674864053227080 -0.0019486708157587  0.4999707446356316
  0.1673953545704288 -0.0028465775268048  0.8333464419475280
  0.0029148948993240  0.1642930144407659  0.5018261286756812
  0.0001235420063468  0.1652199444507730  0.8346397688980440
  0.3327381320111038  0.0009826558340880  0.3314885349781267
  0.3324441861643054 -0.0031267194976806  0.6671444252325058
  0.6666449147703902  0.0005755173195437  0.3343999532905556
  0.6693965200736094  0.0014498813880863  0.6678946990091136
  0.4939723016363324  0.1643601926975786  0.3292377353254953
  0.4942985839045748  0.1596141562577163  0.6677750955383560
  0.8382939781400288  0.1617060218599711  0.3424556492246265
  0.8436185411472860  0.1563814588527133  0.6698030392305961
  0.5004685550472439  0.0007432528611119  0.4999439456748809
  0.5004008717042399  0.0003922784798280  0.8354233058595735
  0.8357069855592335 -0.0029148948993240  0.5018261286756812
  0.8347800555492273 -0.0001235420063468  0.8346397688980440
  0.3309880426080278  0.1646530229816454  0.5004968511626667
  0.3314081239305452  0.1622533326632270  0.8363473820862731
  0.6727664681115364  0.1618403252693861  0.5070450758237812
  0.6655132899693815  0.1700593608457119  0.8292782578389947
 -0.0005755173195437  0.3333550852296093  0.3343999532905556
 -0.0014498813880863  0.3306034799263907  0.6678946990091136
 -0.0009826558340880  0.6672618679888965  0.3314885349781267
  0.0031267194976806  0.6675558138356946  0.6671444252325058
  0.1642448521646671  0.4993643934823133  0.3305472142165705
  0.1591445563843303  0.4930844098478459  0.6697145363294938
  0.1643034058811054  0.8356965941188945  0.3325727194561666
  0.1761652300774333  0.8238347699225668  0.6651704613284672
  0.1664093053207155  0.3328140642827452  0.5012259927130431
  0.1640545356091787  0.3307316577368811  0.8359616584946775
  0.1623401897557984  0.6635809895655935  0.4958826843421459
  0.1655798943276100  0.6649718735488681  0.8371125036291012
 -0.0007432528611119  0.4995314449527553  0.4999439456748809
 -0.0003922784798280  0.4995991282957595  0.8354233058595735
  0.0019486708157587  0.8325135946772917  0.4999707446356316
  0.0028465775268048  0.8326046454295718  0.8333464419475280
  0.3287688084148037  0.3302452474121558  0.3308885913899987
  0.3252832780923809  0.3201676569480280  0.6749726515495948
  0.3197310603770073  0.6802689396229930  0.3285604921639752
  0.6697547525878449  0.6712311915851967  0.3308885913899987
  0.6798323430519719  0.6747167219076188  0.6749726515495948
  0.5006356065176861  0.8357551478353329  0.3305472142165705
  0.5069155901521538  0.8408554436156700  0.6697145363294938
  0.8356398073024216  0.5060276983636676  0.3292377353254953
  0.8403858437422835  0.5057014160954252  0.6677750955383560
  0.8339743368173923  0.8344591874124153  0.3335392204767853
  0.8374031157373018  0.8355028843711720  0.6682497110304093
  0.4949130562049685  0.3322506292325637  0.8392368901689246
  0.5031338899856101  0.6685492856092813  0.8363536252020620
  0.8381596747306139  0.3272335318884632  0.5070450758237812
  0.8299406391542882  0.3344867100306184  0.8292782578389947
  0.8353469770183544  0.6690119573919725  0.5004968511626667
  0.8377466673367725  0.6685918760694546  0.8363473820862731
  0.3314507143907187  0.4968661100143898  0.8363536252020620
  0.3364190104344058  0.8376598102442012  0.4958826843421459
  0.3350281264511321  0.8344201056723898  0.8371125036291012
  0.6677493707674362  0.5050869437950315  0.8392368901689246
  0.6671859357172545  0.8335906946792836  0.5012259927130431
  0.6692683422631195  0.8359454643908212  0.8359616584946775
  0.0817258446535145  0.0830851805849427  0.0839726571189544
  0.2467506608922803  0.2482607616351390  0.0835904814393858
  0.0812092357636175  0.2490080528812057  0.2505287276122778
  0.2482769053159305  0.0831549828144279  0.2493617998771519
  0.4155744510175109  0.0833663302786117  0.0835740994807016
  0.7496625754741980  0.0846710148746198  0.0830889570982969
  0.5806482393216893  0.2499523294734129  0.0816730409837052
  0.9153289851253802  0.2503374245258020  0.0830889570982969
  0.4114103944211541  0.2476169215861451  0.2478777593108854
  0.5809864627052400  0.0819096232279559  0.2503700279681001
  0.9163744537138505  0.0836255462861494  0.2508395800899483
  0.0811955675281044  0.4159600654597005  0.0833499599029862
  0.0822538639709968  0.7509288955623681  0.0825921698965240
  0.2488783341025114  0.5833988124094696  0.0830363582274217
  0.2490711044376316  0.9177461360290028  0.0825921698965240
  0.0821688919389147  0.5842127767356791  0.2481328728894840
  0.0818419471017286  0.9181580528982715  0.2500587624270574
  0.2456475568006297  0.4136902000690733  0.2488912717772962
  0.2436961702396269  0.7563038297603734  0.2431972068847632
  0.4143563406918281  0.4147112918250857  0.0810999112124128
  0.4166011875905296  0.7511216658974889  0.0830363582274217
  0.7500476705265868  0.4193517606783100  0.0816730409837052
  0.7517392383648605  0.7532493391077199  0.0835904814393858
  0.5852887081749141  0.5856436593081712  0.0810999112124128
  0.5840399345402993  0.9188044324718960  0.0833499599029862
  0.9166336697213877  0.5844255489824890  0.0835740994807016
  0.9169148194150573  0.9182741553464857  0.0839726571189544
  0.4157872232643206  0.9178311080610857  0.2481328728894840
  0.7523830784138550  0.5885896055788464  0.2478777593108854
  0.7509919471187941  0.9187907642363822  0.2505287276122778
  0.5863097999309264  0.7543524431993709  0.2488912717772962
  0.9180903767720434  0.4190135372947602  0.2503700279681001
  0.9168450171855724  0.7517230946840695  0.2493617998771519
  0.0841110631106167  0.0819017379942501  0.4170918448060962
  0.0833859511475511  0.0800906479174054  0.7513087340398530
  0.2486249509502237  0.2489714479352481  0.4175894758670993
  0.2444953766693175  0.2418748062754658  0.7557985057773583
  0.0835018437124896  0.2479926910733380  0.5853516908111107
  0.0814436435960134  0.2483829606255732  0.9184581480555375
  0.2490181432715916  0.0807278197497330  0.5844729001454584
  0.2486209003280796  0.0807034736787305  0.9183040364493409
  0.4152726237271754  0.0829435565173522  0.4170500355793374
  0.4135969481675043  0.0788923935687377  0.7520033889916200
  0.7514783843407949  0.0795117128902919  0.4198345244059829
  0.7523197012581632  0.0829202225057970  0.7508933411555657
  0.5691818430193289  0.2476374968906284  0.7506592680184015
  0.9204882871097082  0.2485216156592050  0.4198345244059829
  0.9170797774942036  0.2476802987418365  0.7508933411555657
  0.4104716841466604  0.2447156233078821  0.5885465457153944
  0.4127641832958643  0.2475232245129044  0.9193218844699306
  0.7645161432467020  0.2354838567532979  0.5856867287274636
  0.7478357777312695  0.2521642222687305  0.9149694134894475
  0.5829531730442967  0.0822563377417076  0.5855001433284962
  0.5829959639986340  0.0853681661954843  0.9160152503335000
  0.9233563557686441  0.0766436442313560  0.5844047425361413
  0.9164293055741480  0.0835706944258525  0.9177993177944770
  0.0834037930823746  0.4170617977745843  0.4173285253356228
  0.0788753678414977  0.4122824962387109  0.7529926180989454
  0.0816903494542299  0.7495883542536884  0.4143726018495419
  0.0870413990885880  0.7481148437622924  0.7501209006870262
  0.2461782219642783  0.5892955246869149  0.4061667840313687
  0.2391183193192329  0.5717484809231015  0.7575173384479605
  0.2504116457463119  0.9183096505457704  0.4143726018495419
  0.2518851562377081  0.9129586009114120  0.7501209006870262
  0.0830896565632150  0.5813427159321607  0.5834722661611061
  0.0819190153975717  0.5826354204438692  0.9196785522242457
  0.0890334362251830  0.9109665637748167  0.5832619053068768
  0.0838518919589379  0.9161481080410622  0.9170579064933682
  0.2462848154694948  0.4068908640981324  0.5953359738212904
  0.2474625466991310  0.4139204986107184  0.9193153153857464
  0.2556645536430353  0.7443354463569641  0.5681307751799511
  0.2508329132091496  0.7491670867908503  0.9177464374722298
  0.4063278119541304  0.4058937193397877  0.7538030139239905
  0.4107044753130860  0.7538217780357211  0.4061667840313687
  0.4282515190768989  0.7608816806807679  0.7575173384479605
  0.7523625031093715  0.4308181569806709  0.7506592680184015
  0.7510285520647516  0.7513750490497763  0.4175894758670993
  0.7581251937245345  0.7555046233306828  0.7557985057773583
  0.5941062806602124  0.5936721880458695  0.7538030139239905
  0.5829382022254155  0.9165962069176252  0.4173285253356228
  0.5877175037612883  0.9211246321585024  0.7529926180989454
  0.9170564434826481  0.5847273762728248  0.4170500355793374
  0.9211076064312624  0.5864030518324964  0.7520033889916200
  0.9180982620057497  0.9158889368893832  0.4170918448060962
  0.9199093520825943  0.9166140488524488  0.7513087340398530
  0.4168239699571308  0.5831760300428689  0.9161802873013921
  0.4186572840678394  0.9169103434367849  0.5834722661611061
  0.4173645795561308  0.9180809846024280  0.9196785522242457
  0.7552843766921175  0.5895283158533395  0.5885465457153944
  0.7524767754870955  0.5872358167041348  0.9193218844699306
  0.7520073089266612  0.9164981562875109  0.5853516908111107
  0.7516170393744267  0.9185563564039866  0.9184581480555375
  0.5821674853329372  0.4178325146670628  0.9172050319324455
  0.5931091359018676  0.7537151845305055  0.5953359738212904
  0.5860795013892817  0.7525374533008691  0.9193153153857464
  0.9177436622582924  0.4170468269557037  0.5855001433284962
  0.9146318338045158  0.4170040360013660  0.9160152503335000
  0.9192721802502669  0.7509818567284080  0.5844729001454584
  0.9192965263212702  0.7513790996719202  0.9183040364493409
  0.7010996118412146  0.2132603924984921  0.2133305941925981
  0.7867396075015083  0.2989003881587850  0.2133305941925981
  0.7869501924095988  0.2130498075904013  0.3014694726359137
  0.5383604927278550  0.3745424312040700  0.2175640865458255
  0.6254575687959303  0.4616395072721446  0.2175640865458255
  0.5392937535430115  0.2186369152384649  0.3745865937958068
  0.6315413525543109  0.2198177814377605  0.4624666276113391
  0.7813630847615352  0.4607062464569885  0.3745865937958068
  0.7801822185622392  0.3684586474456891  0.4624666276113391
  0.5862950635580146  0.3280753606471521  0.6727734878514442
  0.7090996494282705  0.2909003505717299  0.6641742547092018
  0.6719246393528479  0.4137049364419860  0.6727734878514442
  0.4583541931941725  0.4583945155742671  0.6697937569910561
  0.5416054844257333  0.5416458068058276  0.6697937569910561
  0.4750155669351974  0.3172369373399062  0.5271454588812072
  0.6827630626600939  0.5249844330648024  0.5271454588812072
  0.2941958484680463  0.6261445616848028  0.6791659280076295
  0.3370010367654275  0.6629989632345725  0.5667037593110311
  0.3738554383151974  0.7058041515319535  0.6791659280076295
  0.4686178653450160  0.6669245030024048  0.4474827335645254
  0.5311160684913719  0.6704319538908565  0.5524063049061759
  0.3330754969975953  0.5313821346549841  0.4474827335645254
  0.3295680461091440  0.4688839315086286  0.5524063049061759
  0.4672635228518515  0.6215751724337534  0.2136263234315989
  0.3784248275662463  0.5327364771481476  0.2136263234315989
  0.3707408910950566  0.6292591089049434  0.2873066169164339
  0.3784613018689403  0.3799309907430442  0.3778858784227331
  0.6200690092569552  0.6215386981310597  0.3778858784227331
 
  0.00000000E+00  0.00000000E+00  0.00000000E+00
  0.00000000E+00  0.00000000E+00  0.00000000E+00
  0.00000000E+00  0.00000000E+00  0.00000000E+00
  0.00000000E+00  0.00000000E+00  0.00000000E+00
  0.00000000E+00  0.00000000E+00  0.00000000E+00
  0.00000000E+00  0.00000000E+00  0.00000000E+00
  0.00000000E+00  0.00000000E+00  0.00000000E+00
  0.00000000E+00  0.00000000E+00  0.00000000E+00
  0.00000000E+00  0.00000000E+00  0.00000000E+00
  0.00000000E+00  0.00000000E+00  0.00000000E+00
  0.00000000E+00  0.00000000E+00  0.00000000E+00
  0.00000000E+00  0.00000000E+00  0.00000000E+00
  0.00000000E+00  0.00000000E+00  0.00000000E+00
  0.00000000E+00  0.00000000E+00  0.00000000E+00
  0.00000000E+00  0.00000000E+00  0.00000000E+00
  0.00000000E+00  0.00000000E+00  0.00000000E+00
  0.00000000E+00  0.00000000E+00  0.00000000E+00
  0.00000000E+00  0.00000000E+00  0.00000000E+00
  0.00000000E+00  0.00000000E+00  0.00000000E+00
  0.00000000E+00  0.00000000E+00  0.00000000E+00
  0.00000000E+00  0.00000000E+00  0.00000000E+00
  0.00000000E+00  0.00000000E+00  0.00000000E+00
  0.00000000E+00  0.00000000E+00  0.00000000E+00
  0.00000000E+00  0.00000000E+00  0.00000000E+00
  0.00000000E+00  0.00000000E+00  0.00000000E+00
  0.00000000E+00  0.00000000E+00  0.00000000E+00
  0.00000000E+00  0.00000000E+00  0.00000000E+00
  0.00000000E+00  0.00000000E+00  0.00000000E+00
  0.00000000E+00  0.00000000E+00  0.00000000E+00
  0.00000000E+00  0.00000000E+00  0.00000000E+00
  0.00000000E+00  0.00000000E+00  0.00000000E+00
  0.00000000E+00  0.00000000E+00  0.00000000E+00
  0.00000000E+00  0.00000000E+00  0.00000000E+00
  0.00000000E+00  0.00000000E+00  0.00000000E+00
  0.00000000E+00  0.00000000E+00  0.00000000E+00
  0.00000000E+00  0.00000000E+00  0.00000000E+00
  0.00000000E+00  0.00000000E+00  0.00000000E+00
  0.00000000E+00  0.00000000E+00  0.00000000E+00
  0.00000000E+00  0.00000000E+00  0.00000000E+00
  0.00000000E+00  0.00000000E+00  0.00000000E+00
  0.00000000E+00  0.00000000E+00  0.00000000E+00
  0.00000000E+00  0.00000000E+00  0.00000000E+00
  0.00000000E+00  0.00000000E+00  0.00000000E+00
  0.00000000E+00  0.00000000E+00  0.00000000E+00
  0.00000000E+00  0.00000000E+00  0.00000000E+00
  0.00000000E+00  0.00000000E+00  0.00000000E+00
  0.00000000E+00  0.00000000E+00  0.00000000E+00
  0.00000000E+00  0.00000000E+00  0.00000000E+00
  0.00000000E+00  0.00000000E+00  0.00000000E+00
  0.00000000E+00  0.00000000E+00  0.00000000E+00
  0.00000000E+00  0.00000000E+00  0.00000000E+00
  0.00000000E+00  0.00000000E+00  0.00000000E+00
  0.00000000E+00  0.00000000E+00  0.00000000E+00
  0.00000000E+00  0.00000000E+00  0.00000000E+00
  0.00000000E+00  0.00000000E+00  0.00000000E+00
  0.00000000E+00  0.00000000E+00  0.00000000E+00
  0.00000000E+00  0.00000000E+00  0.00000000E+00
  0.00000000E+00  0.00000000E+00  0.00000000E+00
  0.00000000E+00  0.00000000E+00  0.00000000E+00
  0.00000000E+00  0.00000000E+00  0.00000000E+00
  0.00000000E+00  0.00000000E+00  0.00000000E+00
  0.00000000E+00  0.00000000E+00  0.00000000E+00
  0.00000000E+00  0.00000000E+00  0.00000000E+00
  0.00000000E+00  0.00000000E+00  0.00000000E+00
  0.00000000E+00  0.00000000E+00  0.00000000E+00
  0.00000000E+00  0.00000000E+00  0.00000000E+00
  0.00000000E+00  0.00000000E+00  0.00000000E+00
  0.00000000E+00  0.00000000E+00  0.00000000E+00
  0.00000000E+00  0.00000000E+00  0.00000000E+00
  0.00000000E+00  0.00000000E+00  0.00000000E+00
  0.00000000E+00  0.00000000E+00  0.00000000E+00
  0.00000000E+00  0.00000000E+00  0.00000000E+00
  0.00000000E+00  0.00000000E+00  0.00000000E+00
  0.00000000E+00  0.00000000E+00  0.00000000E+00
  0.00000000E+00  0.00000000E+00  0.00000000E+00
  0.00000000E+00  0.00000000E+00  0.00000000E+00
  0.00000000E+00  0.00000000E+00  0.00000000E+00
  0.00000000E+00  0.00000000E+00  0.00000000E+00
  0.00000000E+00  0.00000000E+00  0.00000000E+00
  0.00000000E+00  0.00000000E+00  0.00000000E+00
  0.00000000E+00  0.00000000E+00  0.00000000E+00
  0.00000000E+00  0.00000000E+00  0.00000000E+00
  0.00000000E+00  0.00000000E+00  0.00000000E+00
  0.00000000E+00  0.00000000E+00  0.00000000E+00
  0.00000000E+00  0.00000000E+00  0.00000000E+00
  0.00000000E+00  0.00000000E+00  0.00000000E+00
  0.00000000E+00  0.00000000E+00  0.00000000E+00
  0.00000000E+00  0.00000000E+00  0.00000000E+00
  0.00000000E+00  0.00000000E+00  0.00000000E+00
  0.00000000E+00  0.00000000E+00  0.00000000E+00
  0.00000000E+00  0.00000000E+00  0.00000000E+00
  0.00000000E+00  0.00000000E+00  0.00000000E+00
  0.00000000E+00  0.00000000E+00  0.00000000E+00
  0.00000000E+00  0.00000000E+00  0.00000000E+00
  0.00000000E+00  0.00000000E+00  0.00000000E+00
  0.00000000E+00  0.00000000E+00  0.00000000E+00
  0.00000000E+00  0.00000000E+00  0.00000000E+00
  0.00000000E+00  0.00000000E+00  0.00000000E+00
  0.00000000E+00  0.00000000E+00  0.00000000E+00
  0.00000000E+00  0.00000000E+00  0.00000000E+00
  0.00000000E+00  0.00000000E+00  0.00000000E+00
  0.00000000E+00  0.00000000E+00  0.00000000E+00
  0.00000000E+00  0.00000000E+00  0.00000000E+00
  0.00000000E+00  0.00000000E+00  0.00000000E+00
  0.00000000E+00  0.00000000E+00  0.00000000E+00
  0.00000000E+00  0.00000000E+00  0.00000000E+00
  0.00000000E+00  0.00000000E+00  0.00000000E+00
  0.00000000E+00  0.00000000E+00  0.00000000E+00
  0.00000000E+00  0.00000000E+00  0.00000000E+00
  0.00000000E+00  0.00000000E+00  0.00000000E+00
  0.00000000E+00  0.00000000E+00  0.00000000E+00
  0.00000000E+00  0.00000000E+00  0.00000000E+00
  0.00000000E+00  0.00000000E+00  0.00000000E+00
  0.00000000E+00  0.00000000E+00  0.00000000E+00
  0.00000000E+00  0.00000000E+00  0.00000000E+00
  0.00000000E+00  0.00000000E+00  0.00000000E+00
  0.00000000E+00  0.00000000E+00  0.00000000E+00
  0.00000000E+00  0.00000000E+00  0.00000000E+00
  0.00000000E+00  0.00000000E+00  0.00000000E+00
  0.00000000E+00  0.00000000E+00  0.00000000E+00
  0.00000000E+00  0.00000000E+00  0.00000000E+00
  0.00000000E+00  0.00000000E+00  0.00000000E+00
  0.00000000E+00  0.00000000E+00  0.00000000E+00
  0.00000000E+00  0.00000000E+00  0.00000000E+00
  0.00000000E+00  0.00000000E+00  0.00000000E+00
  0.00000000E+00  0.00000000E+00  0.00000000E+00
  0.00000000E+00  0.00000000E+00  0.00000000E+00
  0.00000000E+00  0.00000000E+00  0.00000000E+00
  0.00000000E+00  0.00000000E+00  0.00000000E+00
  0.00000000E+00  0.00000000E+00  0.00000000E+00
  0.00000000E+00  0.00000000E+00  0.00000000E+00
  0.00000000E+00  0.00000000E+00  0.00000000E+00
  0.00000000E+00  0.00000000E+00  0.00000000E+00
  0.00000000E+00  0.00000000E+00  0.00000000E+00
  0.00000000E+00  0.00000000E+00  0.00000000E+00
  0.00000000E+00  0.00000000E+00  0.00000000E+00
  0.00000000E+00  0.00000000E+00  0.00000000E+00
  0.00000000E+00  0.00000000E+00  0.00000000E+00
  0.00000000E+00  0.00000000E+00  0.00000000E+00
  0.00000000E+00  0.00000000E+00  0.00000000E+00
  0.00000000E+00  0.00000000E+00  0.00000000E+00
  0.00000000E+00  0.00000000E+00  0.00000000E+00
  0.00000000E+00  0.00000000E+00  0.00000000E+00
  0.00000000E+00  0.00000000E+00  0.00000000E+00
  0.00000000E+00  0.00000000E+00  0.00000000E+00
  0.00000000E+00  0.00000000E+00  0.00000000E+00
  0.00000000E+00  0.00000000E+00  0.00000000E+00
  0.00000000E+00  0.00000000E+00  0.00000000E+00
  0.00000000E+00  0.00000000E+00  0.00000000E+00
  0.00000000E+00  0.00000000E+00  0.00000000E+00
  0.00000000E+00  0.00000000E+00  0.00000000E+00
  0.00000000E+00  0.00000000E+00  0.00000000E+00
  0.00000000E+00  0.00000000E+00  0.00000000E+00
  0.00000000E+00  0.00000000E+00  0.00000000E+00
  0.00000000E+00  0.00000000E+00  0.00000000E+00
  0.00000000E+00  0.00000000E+00  0.00000000E+00
  0.00000000E+00  0.00000000E+00  0.00000000E+00
  0.00000000E+00  0.00000000E+00  0.00000000E+00
  0.00000000E+00  0.00000000E+00  0.00000000E+00
  0.00000000E+00  0.00000000E+00  0.00000000E+00
  0.00000000E+00  0.00000000E+00  0.00000000E+00
  0.00000000E+00  0.00000000E+00  0.00000000E+00
  0.00000000E+00  0.00000000E+00  0.00000000E+00
  0.00000000E+00  0.00000000E+00  0.00000000E+00
  0.00000000E+00  0.00000000E+00  0.00000000E+00
  0.00000000E+00  0.00000000E+00  0.00000000E+00
  0.00000000E+00  0.00000000E+00  0.00000000E+00
  0.00000000E+00  0.00000000E+00  0.00000000E+00
  0.00000000E+00  0.00000000E+00  0.00000000E+00
  0.00000000E+00  0.00000000E+00  0.00000000E+00
  0.00000000E+00  0.00000000E+00  0.00000000E+00
  0.00000000E+00  0.00000000E+00  0.00000000E+00
  0.00000000E+00  0.00000000E+00  0.00000000E+00
  0.00000000E+00  0.00000000E+00  0.00000000E+00
  0.00000000E+00  0.00000000E+00  0.00000000E+00
  0.00000000E+00  0.00000000E+00  0.00000000E+00
  0.00000000E+00  0.00000000E+00  0.00000000E+00
  0.00000000E+00  0.00000000E+00  0.00000000E+00
  0.00000000E+00  0.00000000E+00  0.00000000E+00
  0.00000000E+00  0.00000000E+00  0.00000000E+00
  0.00000000E+00  0.00000000E+00  0.00000000E+00
  0.00000000E+00  0.00000000E+00  0.00000000E+00
  0.00000000E+00  0.00000000E+00  0.00000000E+00
  0.00000000E+00  0.00000000E+00  0.00000000E+00
  0.00000000E+00  0.00000000E+00  0.00000000E+00
  0.00000000E+00  0.00000000E+00  0.00000000E+00
  0.00000000E+00  0.00000000E+00  0.00000000E+00
  0.00000000E+00  0.00000000E+00  0.00000000E+00
  0.00000000E+00  0.00000000E+00  0.00000000E+00
  0.00000000E+00  0.00000000E+00  0.00000000E+00
  0.00000000E+00  0.00000000E+00  0.00000000E+00
  0.00000000E+00  0.00000000E+00  0.00000000E+00
  0.00000000E+00  0.00000000E+00  0.00000000E+00
  0.00000000E+00  0.00000000E+00  0.00000000E+00
  0.00000000E+00  0.00000000E+00  0.00000000E+00
  0.00000000E+00  0.00000000E+00  0.00000000E+00
  0.00000000E+00  0.00000000E+00  0.00000000E+00
  0.00000000E+00  0.00000000E+00  0.00000000E+00
  0.00000000E+00  0.00000000E+00  0.00000000E+00
  0.00000000E+00  0.00000000E+00  0.00000000E+00
  0.00000000E+00  0.00000000E+00  0.00000000E+00
  0.00000000E+00  0.00000000E+00  0.00000000E+00
  0.00000000E+00  0.00000000E+00  0.00000000E+00
  0.00000000E+00  0.00000000E+00  0.00000000E+00
  0.00000000E+00  0.00000000E+00  0.00000000E+00
  0.00000000E+00  0.00000000E+00  0.00000000E+00
  0.00000000E+00  0.00000000E+00  0.00000000E+00
  0.00000000E+00  0.00000000E+00  0.00000000E+00
  0.00000000E+00  0.00000000E+00  0.00000000E+00
  0.00000000E+00  0.00000000E+00  0.00000000E+00
  0.00000000E+00  0.00000000E+00  0.00000000E+00
  0.00000000E+00  0.00000000E+00  0.00000000E+00
  0.00000000E+00  0.00000000E+00  0.00000000E+00
  0.00000000E+00  0.00000000E+00  0.00000000E+00
  0.00000000E+00  0.00000000E+00  0.00000000E+00
  0.00000000E+00  0.00000000E+00  0.00000000E+00
  0.00000000E+00  0.00000000E+00  0.00000000E+00
  0.00000000E+00  0.00000000E+00  0.00000000E+00
  0.00000000E+00  0.00000000E+00  0.00000000E+00
  0.00000000E+00  0.00000000E+00  0.00000000E+00
  0.00000000E+00  0.00000000E+00  0.00000000E+00
  0.00000000E+00  0.00000000E+00  0.00000000E+00
  0.00000000E+00  0.00000000E+00  0.00000000E+00
  0.00000000E+00  0.00000000E+00  0.00000000E+00
  0.00000000E+00  0.00000000E+00  0.00000000E+00
  0.00000000E+00  0.00000000E+00  0.00000000E+00
